 200 54 
 22 63 90 70 97 88 49 54 66 86 79 46 
 36 81 60 71 11 86 55 52 96 69 91 80 
 42 16 46 89 1 45 52 70 25 54 8 76 
 33 12 57 21 98 35 100 12 17 49 88 43 
 54 49 12 3 99 40 
 31 
 4 7 8 10 11 12 15 16 18 25 26 28 
 30 31 32 36 38 39 42 43 44 45 46 47 
 48 49 50 51 52 53 54 
 11 
 11 12 15 18 25 27 32 34 38 42 44 
 3 
 5 20 27 
 10 
 5 9 11 14 15 22 33 47 50 52 
 16 
 5 6 7 14 15 19 20 21 23 24 31 34 
 35 39 49 50 
 7 
 10 22 31 36 44 47 51 
 41 
 1 3 4 5 6 7 9 10 11 12 13 14 
 15 16 17 18 20 23 24 25 26 27 29 31 
 32 33 35 36 37 38 39 40 41 42 45 46 
 47 49 50 53 54 
 40 
 1 2 4 5 6 7 8 9 10 11 12 13 
 15 17 18 20 22 23 24 25 27 28 29 30 
 32 33 35 37 38 39 41 42 43 45 46 47 
 50 52 53 54 
 5 
 1 38 48 52 54 
 26 
 6 7 11 14 15 16 17 19 20 21 25 27 
 28 29 31 33 34 35 40 42 43 44 45 46 
 52 53 
 21 
 1 2 4 7 8 10 11 12 15 16 20 21 
 22 28 29 30 34 42 47 48 53 
 45 
 1 2 3 5 6 7 8 9 11 12 14 15 
 16 17 19 21 22 23 24 25 26 27 28 29 
 30 31 32 33 34 35 36 38 39 40 41 42 
 43 44 46 47 48 49 52 53 54 
 49 
 2 3 4 5 7 8 9 10 11 12 13 14 
 15 16 17 18 19 20 21 22 23 25 26 27 
 28 29 30 33 34 35 36 37 38 39 40 41 
 42 43 44 45 46 47 48 49 50 51 52 53 
 54 
 46 
 1 4 5 6 7 9 10 11 12 13 15 16 
 17 18 19 20 21 22 23 24 25 26 28 31 
 32 33 34 35 37 38 39 40 41 42 43 44 
 45 46 47 48 49 50 51 52 53 54 
 32 
 1 3 4 5 6 9 10 12 15 16 17 18 
 20 22 23 25 27 30 32 33 34 35 36 38 
 39 40 43 45 49 50 51 52 
 23 
 2 5 7 8 9 13 15 17 18 19 23 24 
 26 32 36 38 42 46 47 48 50 52 53 
 10 
 3 10 20 29 40 41 42 43 51 52 
 43 
 1 3 4 5 6 8 9 10 11 12 13 15 
 16 17 19 20 21 23 25 26 27 28 29 30 
 31 32 33 34 35 36 37 38 42 44 45 46 
 47 48 49 50 52 53 54 
 8 
 1 8 17 19 26 33 38 48 
 27 
 5 6 8 9 13 14 15 17 21 22 23 26 
 28 30 34 36 39 41 42 46 47 48 49 50 
 51 52 54 
 54 
 1 2 3 4 5 6 7 8 9 10 11 12 
 13 14 15 16 17 18 19 20 21 22 23 24 
 25 26 27 28 29 30 31 32 33 34 35 36 
 37 38 39 40 41 42 43 44 45 46 47 48 
 49 50 51 52 53 54 
 47 
 1 2 3 4 5 7 10 11 12 13 14 15 
 16 17 18 19 20 21 22 24 25 27 28 31 
 32 33 34 35 36 37 38 39 40 41 42 43 
 44 45 46 47 48 49 50 51 52 53 54 
 31 
 2 3 7 9 11 12 15 16 18 19 21 22 
 25 26 28 29 31 33 35 37 38 39 40 42 
 43 44 47 50 52 53 54 
 43 
 1 2 3 4 5 6 7 9 10 11 12 13 
 14 15 16 18 23 24 25 27 28 29 30 31 
 32 33 34 36 37 38 39 40 41 42 43 44 
 46 47 48 50 51 53 54 
 39 
 1 2 3 4 5 7 9 10 11 12 15 16 
 18 19 21 22 24 25 26 27 29 32 33 34 
 35 36 37 38 39 40 42 44 46 48 50 51 
 52 53 54 
 53 
 1 2 3 5 6 7 8 9 10 11 12 13 
 14 15 16 17 18 19 20 21 22 23 24 25 
 26 27 28 29 30 31 32 33 34 35 36 37 
 38 39 40 41 42 43 44 45 46 47 48 49 
 50 51 52 53 54 
 15 
 2 3 6 9 16 29 31 34 35 39 42 50 
 51 52 54 
 23 
 3 4 8 9 12 17 18 23 24 26 27 28 
 30 31 33 35 36 39 43 44 50 52 54 
 15 
 2 7 10 11 12 14 18 20 31 32 42 47 
 49 52 53 
 15 
 3 4 6 7 13 14 15 16 18 20 26 27 
 28 31 51 
 21 
 2 3 4 7 9 11 13 17 20 22 23 27 
 31 32 33 35 38 45 49 50 54 
 47 
 1 2 3 4 5 7 8 9 10 11 12 13 
 14 15 17 18 19 20 21 22 23 24 25 27 
 28 29 30 33 34 35 36 37 38 39 40 41 
 42 43 44 45 47 48 49 50 51 53 54 
 34 
 1 3 4 5 6 7 8 13 14 15 16 17 
 18 19 21 22 24 26 28 29 31 32 36 37 
 39 41 42 43 44 46 47 51 52 53 
 16 
 7 8 10 14 20 21 23 32 36 38 39 43 
 44 49 52 54 
 8 
 3 13 14 21 27 34 39 49 
 40 
 1 2 3 4 5 6 8 10 12 13 14 15 
 16 18 19 20 22 23 24 25 26 28 29 30 
 31 33 35 37 41 42 43 44 46 47 48 49 
 50 51 52 53 
 2 
 46 49 
 46 
 1 2 4 5 6 7 8 9 10 11 12 13 
 16 17 18 19 20 21 22 23 24 25 26 27 
 28 29 30 31 32 33 34 35 36 37 38 40 
 43 44 45 46 47 48 49 50 51 54 
 35 
 1 2 3 4 5 7 11 13 15 16 17 18 
 19 20 21 22 23 25 26 27 29 32 33 34 
 37 40 41 42 43 44 45 48 49 50 54 
 24 
 1 6 9 10 11 12 15 17 19 24 30 31 
 32 33 35 37 40 42 44 46 47 49 52 53 
 31 
 1 2 3 4 6 8 11 12 14 16 17 18 
 21 23 24 28 31 32 33 34 36 38 39 40 
 41 43 44 48 50 51 53 
 13 
 12 18 24 25 26 33 34 38 42 45 46 49 
 51 
 44 
 1 2 3 4 5 7 8 9 10 11 12 15 
 16 19 20 21 22 23 26 27 28 29 30 31 
 33 34 35 36 38 39 40 41 42 43 44 45 
 47 48 49 50 51 52 53 54 
 25 
 4 6 7 8 9 11 12 14 15 21 23 27 
 31 32 33 35 38 39 41 43 44 46 49 51 
 54 
 36 
 2 3 5 7 8 9 12 14 15 16 17 18 
 19 21 22 23 24 25 26 28 29 30 31 33 
 34 35 36 37 38 39 43 44 46 47 51 52 
 37 
 2 4 6 7 8 9 10 11 12 13 16 17 
 18 19 20 21 22 23 26 27 28 29 30 32 
 33 34 35 36 37 39 40 41 42 44 46 52 
 54 
 53 
 1 2 3 4 5 6 7 8 9 10 11 12 
 13 14 15 16 17 18 19 20 21 22 23 24 
 25 26 27 28 29 30 31 32 33 34 35 36 
 37 38 39 40 41 42 43 44 45 46 47 48 
 49 50 51 53 54 
 21 
 1 3 4 5 7 12 13 16 18 26 27 28 
 31 36 38 39 41 42 44 47 50 
 43 
 1 2 3 7 8 9 10 11 12 13 14 15 
 16 17 18 19 20 23 24 25 26 27 28 30 
 31 32 33 34 35 36 37 38 39 41 43 44 
 45 46 47 48 49 50 54 
 4 
 5 31 45 47 
 49 
 1 2 3 4 5 6 7 8 10 11 12 13 
 14 15 16 17 18 19 20 21 23 24 25 26 
 27 28 29 30 31 33 34 36 37 38 39 40 
 41 42 43 45 46 47 48 49 50 51 52 53 
 54 
 48 
 1 2 4 5 6 7 8 9 10 11 12 14 
 15 16 17 18 19 21 22 23 24 25 27 28 
 29 30 32 33 34 35 36 37 38 40 41 42 
 43 44 45 46 47 48 49 50 51 52 53 54 
 23 
 1 2 3 8 9 10 11 12 15 17 19 24 
 27 30 37 40 44 46 49 51 52 53 54 
 49 
 1 2 3 4 5 6 7 8 9 10 11 12 
 13 14 15 16 17 18 19 20 22 23 24 26 
 27 28 29 30 32 33 34 35 37 38 39 40 
 41 43 44 45 46 47 48 49 50 51 52 53 
 54 
 53 
 1 2 3 4 5 6 7 8 9 10 11 12 
 13 14 15 16 17 18 19 20 21 22 23 24 
 25 26 27 28 29 30 31 32 33 34 35 36 
 37 38 39 40 41 42 43 44 45 46 47 49 
 50 51 52 53 54 
 32 
 1 3 4 7 9 10 11 13 14 17 20 22 
 23 24 25 27 28 31 33 34 35 40 42 43 
 44 45 46 48 49 51 53 54 
 35 
 1 2 3 4 5 8 9 10 11 12 15 16 
 18 19 20 22 23 24 26 27 29 31 36 37 
 38 39 40 42 43 46 47 49 50 51 54 
 43 
 1 2 3 4 6 7 8 9 10 11 12 13 
 14 15 16 18 19 20 21 22 25 26 27 28 
 29 31 33 34 35 37 38 39 40 44 45 46 
 47 49 50 51 52 53 54 
 9 
 1 3 29 31 36 39 43 45 52 
 29 
 1 2 3 6 10 11 13 14 15 16 22 27 
 28 30 31 32 33 37 38 39 40 41 42 43 
 45 47 50 52 54 
 14 
 5 8 13 15 20 21 24 34 35 39 41 44 
 49 50 
 46 
 2 3 4 5 6 7 8 9 10 11 13 14 
 15 17 19 20 21 22 23 24 25 26 28 29 
 30 31 32 33 34 35 36 37 38 39 41 43 
 45 46 47 48 49 50 51 52 53 54 
 54 
 1 2 3 4 5 6 7 8 9 10 11 12 
 13 14 15 16 17 18 19 20 21 22 23 24 
 25 26 27 28 29 30 31 32 33 34 35 36 
 37 38 39 40 41 42 43 44 45 46 47 48 
 49 50 51 52 53 54 
 36 
 1 3 4 5 6 7 8 11 12 14 18 19 
 20 21 22 24 25 27 28 29 31 32 34 39 
 40 41 42 43 44 45 46 48 49 52 53 54 
 18 
 2 4 5 8 20 22 23 28 29 32 38 42 
 43 44 49 50 53 54 
 10 
 8 14 19 24 25 27 42 43 48 50 
 2 
 17 39 
 51 
 1 2 3 4 5 6 7 8 9 10 11 12 
 13 14 15 16 17 18 19 20 21 22 24 25 
 26 27 28 29 30 31 32 33 34 35 36 37 
 38 39 40 41 43 44 45 46 47 48 49 50 
 52 53 54 
 49 
 1 2 3 4 5 6 7 8 10 11 12 13 
 14 15 16 17 18 19 20 21 22 23 24 25 
 27 28 29 30 31 32 33 36 37 38 39 40 
 42 43 44 45 46 47 48 49 50 51 52 53 
 54 
 14 
 1 20 22 26 29 30 32 33 34 35 37 40 
 45 49 
 29 
 1 5 6 8 11 12 13 15 17 19 21 24 
 25 27 28 29 31 36 38 40 41 42 45 47 
 48 49 50 51 54 
 38 
 1 2 4 6 7 8 9 10 12 13 14 15 
 16 17 18 19 20 22 23 24 25 26 27 28 
 30 31 34 37 39 40 41 46 48 49 50 51 
 52 53 
 31 
 3 4 5 8 9 13 15 16 18 19 20 21 
 25 27 28 31 32 33 34 36 38 41 42 43 
 46 47 48 49 51 52 54 
 20 
 2 4 9 16 19 20 24 25 30 36 37 38 
 41 43 44 47 49 50 52 53 
 37 
 1 2 4 6 7 8 9 10 13 16 17 19 
 20 21 22 23 25 27 28 31 32 34 35 37 
 38 39 40 42 43 44 45 46 49 51 52 53 
 54 
 46 
 1 2 3 4 5 6 7 8 9 10 11 12 
 13 14 16 18 19 21 23 24 26 27 28 29 
 30 31 32 33 34 35 36 37 39 40 42 43 
 44 45 46 47 48 50 51 52 53 54 
 12 
 1 16 17 25 28 31 35 37 39 48 50 54 
 53 
 1 2 3 4 5 6 7 8 9 10 11 12 
 13 14 15 16 17 18 19 20 21 22 23 24 
 25 26 27 28 29 30 31 32 33 34 35 36 
 37 38 39 40 42 43 44 45 46 47 48 49 
 50 51 52 53 54 
 29 
 2 3 5 10 12 13 14 19 22 25 26 28 
 29 30 33 34 37 38 39 42 43 44 45 47 
 48 49 50 53 54 
 24 
 3 8 9 10 11 14 15 16 17 19 24 28 
 30 31 32 35 36 37 38 42 43 49 50 53 
 30 
 1 2 3 6 7 10 12 13 14 16 18 19 
 21 22 24 25 26 28 31 32 33 34 38 39 
 42 46 47 50 51 53 
 46 
 1 2 3 4 5 7 8 9 10 11 12 13 
 15 16 18 20 21 22 24 25 26 27 28 29 
 30 31 33 34 35 36 37 38 40 41 42 43 
 44 45 47 48 49 50 51 52 53 54 
 17 
 1 4 8 11 17 21 22 24 25 26 27 31 
 33 34 35 43 51 
 40 
 1 2 4 5 6 7 8 9 11 12 13 15 
 16 17 18 20 21 22 25 26 27 28 29 30 
 33 34 36 37 38 39 40 41 42 43 44 45 
 48 49 51 53 
 15 
 2 5 11 15 16 22 26 27 31 32 43 44 
 48 49 54 
 2 
 1 38 
 8 
 10 11 27 28 39 43 46 54 
 11 
 7 8 20 29 31 36 41 42 43 46 53 
 37 
 1 2 3 4 5 7 8 9 10 11 13 15 
 17 18 20 22 25 26 27 29 30 31 32 33 
 35 36 38 39 40 41 43 44 45 46 49 52 
 53 
 3 
 2 17 36 
 46 
 1 2 3 4 5 6 8 9 10 11 12 13 
 14 15 16 17 18 20 21 23 24 25 26 27 
 28 30 31 34 35 36 38 40 41 42 43 44 
 45 46 47 48 49 50 51 52 53 54 
 4 
 7 11 28 44 
 3 
 15 17 27 
 45 
 1 3 4 5 7 8 9 10 11 12 14 15 
 16 17 18 19 20 21 22 23 24 25 26 27 
 28 29 30 31 32 33 34 35 36 37 38 39 
 40 41 42 43 44 48 49 52 53 
 19 
 2 5 6 7 9 10 17 20 23 24 26 29 
 36 38 40 43 45 50 54 
 15 
 2 12 15 17 18 20 21 23 24 27 44 45 
 48 49 50 
 50 
 1 2 3 4 5 6 7 8 9 11 12 13 
 14 15 16 17 18 19 20 21 22 23 24 26 
 28 29 30 31 32 33 34 35 36 37 38 39 
 40 42 43 44 45 46 47 48 49 50 51 52 
 53 54 
 24 
 1 4 7 9 12 15 16 19 22 25 28 29 
 31 32 33 35 36 37 42 45 47 49 51 53 
 54 
 1 2 3 4 5 6 7 8 9 10 11 12 
 13 14 15 16 17 18 19 20 21 22 23 24 
 25 26 27 28 29 30 31 32 33 34 35 36 
 37 38 39 40 41 42 43 44 45 46 47 48 
 49 50 51 52 53 54 
 36 
 2 3 4 7 9 12 14 17 18 21 22 23 
 25 26 27 29 30 31 32 34 35 36 38 39 
 40 41 42 44 45 46 47 48 49 50 53 54 
 21 
 1 5 7 8 12 14 18 22 24 27 28 30 
 31 32 36 38 46 47 48 52 54 
 48 
 1 2 3 4 5 6 7 8 9 10 11 12 
 13 14 15 16 17 18 19 20 21 22 23 27 
 28 30 31 32 33 34 35 36 37 38 39 41 
 42 43 44 45 46 47 48 49 50 51 52 54 
 44 
 1 3 4 5 7 8 10 11 12 13 14 15 
 16 17 18 19 20 22 23 24 25 27 28 30 
 31 32 33 34 35 37 38 39 40 41 42 43 
 44 47 49 50 51 52 53 54 
 48 
 1 2 3 4 5 6 7 8 10 11 12 13 
 14 15 16 17 18 19 20 21 22 23 24 25 
 26 27 28 29 30 32 33 34 35 36 37 38 
 39 40 42 44 45 46 47 49 50 51 52 53 
 9 
 6 10 13 14 21 22 26 34 39 
 26 
 1 5 9 10 11 12 14 15 17 19 20 21 
 22 25 26 28 29 32 34 35 36 44 47 48 
 49 52 
 44 
 2 3 4 5 6 7 8 9 10 11 12 13 
 15 16 17 18 19 21 22 23 25 26 27 28 
 29 30 31 32 34 35 36 37 38 41 43 44 
 46 47 48 50 51 52 53 54 
 52 
 1 2 3 4 5 6 7 8 9 10 11 12 
 13 14 15 16 18 19 20 21 22 23 24 26 
 27 28 29 30 31 32 33 34 35 36 37 38 
 39 40 41 42 43 44 45 46 47 48 49 50 
 51 52 53 54 
 37 
 1 2 4 5 9 10 11 15 17 18 19 20 
 21 22 23 24 25 26 27 28 30 31 32 34 
 37 39 40 41 42 44 45 46 47 48 49 52 
 54 
 6 
 6 36 37 44 50 52 
 33 
 2 3 4 5 6 8 9 10 12 13 14 15 
 16 21 23 24 28 29 32 34 35 37 38 39 
 40 41 43 45 47 49 52 53 54 
 46 
 1 2 3 4 5 6 7 8 9 11 12 14 
 15 16 17 18 19 20 21 22 23 24 25 26 
 27 28 29 31 32 33 35 36 37 38 39 40 
 41 42 45 46 47 48 49 51 52 53 
 49 
 1 2 3 4 5 6 7 8 9 10 11 12 
 13 14 15 16 17 18 20 21 23 24 25 26 
 27 28 29 30 31 33 34 35 36 37 38 39 
 40 41 42 43 45 46 47 48 49 50 51 52 
 53 
 15 
 1 2 4 6 7 12 16 19 26 31 35 39 
 40 47 52 
 19 
 1 7 9 11 12 15 20 22 23 24 31 32 
 34 38 39 40 50 51 52 
 22 
 1 3 6 8 9 12 16 18 19 22 26 27 
 31 34 35 36 38 40 41 42 49 53 
 4 
 9 18 52 53 
 14 
 1 4 10 20 22 23 28 30 31 33 39 42 
 43 51 
 12 
 3 9 15 16 17 19 22 24 33 36 37 39 
 45 
 1 2 3 4 5 7 8 9 10 11 13 14 
 15 16 19 20 22 24 25 27 28 29 30 31 
 32 33 34 35 37 38 39 40 41 42 44 45 
 46 47 48 49 50 51 52 53 54 
 38 
 1 3 5 6 7 8 9 10 11 12 13 17 
 20 21 23 24 27 28 31 32 33 35 36 37 
 38 41 42 43 44 45 46 47 49 50 51 52 
 53 54 
 4 
 35 36 42 51 
 21 
 6 8 9 12 13 15 16 19 20 23 25 26 
 27 28 32 36 42 45 47 52 54 
 44 
 1 2 3 5 7 8 9 11 12 13 14 15 
 16 18 19 20 21 22 24 25 26 27 29 30 
 31 32 33 34 35 36 40 41 42 43 44 45 
 46 47 48 50 51 52 53 54 
 11 
 2 4 15 22 26 29 32 38 41 47 51 
 46 
 1 2 3 5 6 9 10 11 12 13 14 16 
 17 18 21 22 23 24 25 26 27 28 29 30 
 31 32 33 34 35 37 38 39 40 42 43 44 
 45 46 47 48 49 50 51 52 53 54 
 36 
 1 3 4 6 7 8 9 13 14 16 17 19 
 20 21 22 23 24 25 26 27 34 35 36 37 
 39 41 42 43 44 45 47 48 49 52 53 54 
 45 
 1 2 3 4 5 6 7 9 10 11 12 13 
 14 15 16 17 18 19 20 21 22 24 25 26 
 27 28 31 32 33 34 38 39 40 41 42 43 
 44 45 47 48 49 51 52 53 54 
 25 
 4 6 8 9 10 12 16 19 20 24 25 28 
 31 34 35 38 39 40 41 44 47 50 51 52 
 53 
 6 
 27 35 39 42 43 53 
 37 
 1 2 3 4 5 9 11 12 17 19 20 21 
 23 24 26 27 29 30 31 32 34 35 36 37 
 38 40 42 43 44 45 46 47 48 51 52 53 
 54 
 50 
 1 2 3 4 5 6 7 8 10 11 12 13 
 15 16 17 18 19 20 21 22 23 24 25 26 
 27 28 30 31 32 33 34 35 36 37 38 39 
 40 42 43 44 45 46 47 48 49 50 51 52 
 53 54 
 4 
 6 8 20 39 
 14 
 3 7 10 14 17 22 27 30 32 42 44 47 
 50 54 
 49 
 2 3 4 5 6 7 8 9 10 11 12 13 
 14 15 16 17 18 19 20 21 22 23 24 25 
 26 27 29 30 31 32 33 34 36 37 38 39 
 41 42 43 44 45 46 47 49 50 51 52 53 
 54 
 38 
 2 4 5 6 7 8 9 13 14 15 16 18 
 19 20 21 22 24 25 26 28 29 31 32 33 
 34 37 38 39 40 41 44 47 48 49 51 52 
 53 54 
 48 
 1 2 3 4 5 6 7 8 10 11 12 13 
 14 15 16 17 18 19 20 21 22 23 24 25 
 26 28 29 31 32 33 34 35 36 37 38 39 
 41 42 45 46 47 48 49 50 51 52 53 54 
 21 
 2 5 13 14 17 18 19 20 29 32 33 34 
 38 40 43 46 47 48 50 52 54 
 38 
 2 3 4 5 9 11 12 15 16 18 19 20 
 22 23 24 25 26 27 28 29 30 31 32 34 
 36 37 38 39 40 41 42 43 44 45 46 48 
 51 54 
 40 
 1 2 3 5 8 9 10 11 12 13 14 16 
 17 18 19 20 22 25 26 27 28 29 31 32 
 35 36 37 38 39 42 43 46 47 48 49 50 
 51 52 53 54 
 52 
 1 2 3 4 5 6 7 8 9 10 11 12 
 13 14 15 17 18 19 20 21 22 23 24 25 
 26 27 28 29 31 32 33 34 35 36 37 38 
 39 40 41 42 43 44 45 46 47 48 49 50 
 51 52 53 54 
 7 
 11 15 18 30 33 39 50 
 21 
 1 2 4 7 9 10 11 16 17 21 24 25 
 26 27 30 32 35 43 46 48 49 
 46 
 1 2 3 4 5 6 7 8 9 10 11 12 
 14 15 16 17 20 21 22 24 26 27 28 29 
 31 32 33 34 35 36 37 38 40 41 42 43 
 44 46 47 48 49 50 51 52 53 54 
 43 
 1 2 3 5 6 7 8 9 10 11 12 13 
 14 15 17 18 19 20 21 22 23 24 25 27 
 32 34 35 36 38 39 41 42 43 44 45 46 
 48 49 50 51 52 53 54 
 19 
 5 13 14 15 17 18 20 21 25 28 30 31 
 35 38 41 42 43 44 53 
 12 
 4 7 14 24 28 29 30 32 40 46 49 51 
 48 
 1 2 3 4 5 6 7 8 9 10 11 12 
 13 14 15 16 17 18 19 20 21 22 23 24 
 25 28 29 30 32 33 34 35 36 37 38 40 
 42 43 44 45 46 47 48 50 51 52 53 54 
 5 
 26 29 38 50 54 
 42 
 1 2 5 6 7 8 10 11 12 13 14 15 
 16 17 18 19 20 21 22 23 25 27 28 30 
 31 32 33 35 36 38 39 40 41 42 44 45 
 47 48 50 51 53 54 
 49 
 1 2 3 4 5 6 7 8 9 10 11 12 
 13 14 15 16 17 18 19 20 21 22 23 24 
 25 26 27 30 31 32 33 34 35 36 37 39 
 40 42 43 44 45 46 47 49 50 51 52 53 
 54 
 8 
 1 3 10 11 26 33 48 54 
 5 
 19 29 31 34 54 
 18 
 1 3 5 7 10 14 19 21 25 26 32 33 
 35 36 43 47 48 50 
 47 
 1 2 3 4 5 6 7 8 10 11 12 13 
 14 15 16 17 18 19 20 22 23 24 25 27 
 28 29 30 31 33 34 35 36 37 38 39 40 
 42 43 44 45 46 47 48 49 50 51 52 
 41 
 1 5 6 7 9 10 13 14 15 16 17 18 
 19 20 21 22 23 24 26 28 31 33 36 37 
 38 39 40 41 42 43 44 45 46 47 48 49 
 50 51 52 53 54 
 47 
 1 2 3 4 5 6 7 8 9 10 11 12 
 13 15 16 17 19 20 21 22 24 25 27 28 
 29 30 31 32 34 35 36 37 39 40 41 42 
 43 44 45 46 47 48 50 51 52 53 54 
 11 
 4 5 10 12 13 22 26 39 44 51 52 
 37 
 1 2 3 4 5 6 8 9 11 13 14 15 
 17 18 20 21 22 24 25 27 28 30 31 33 
 34 35 36 37 38 40 41 43 45 46 47 50 
 52 
 54 
 1 2 3 4 5 6 7 8 9 10 11 12 
 13 14 15 16 17 18 19 20 21 22 23 24 
 25 26 27 28 29 30 31 32 33 34 35 36 
 37 38 39 40 41 42 43 44 45 46 47 48 
 49 50 51 52 53 54 
 47 
 1 2 4 5 7 8 9 10 11 12 13 14 
 15 16 18 19 20 21 22 23 24 25 26 27 
 28 29 30 31 33 34 37 38 39 40 41 42 
 43 44 45 46 47 48 49 50 51 52 53 
 21 
 11 16 17 18 19 21 22 24 25 26 31 34 
 35 37 39 40 44 45 48 53 54 
 15 
 3 12 14 24 25 28 29 37 39 45 46 47 
 49 53 54 
 42 
 1 2 5 6 7 8 9 10 11 12 13 14 
 15 16 20 21 22 23 24 25 26 27 28 29 
 30 31 32 33 34 35 37 38 39 41 42 43 
 45 46 48 51 52 53 
 4 
 32 33 37 39 
 32 
 2 3 4 6 7 8 10 11 14 18 19 22 
 24 27 28 29 33 34 35 38 39 40 41 43 
 44 46 47 48 50 51 52 53 
 24 
 1 2 5 7 8 10 19 20 23 30 31 32 
 35 37 39 40 41 44 46 48 49 50 51 52 
 37 
 1 2 4 6 7 9 11 13 16 18 19 22 
 23 24 27 29 30 32 33 34 35 36 37 38 
 40 41 42 43 45 46 48 49 50 51 52 53 
 54 
 16 
 9 11 17 18 20 22 23 26 31 32 40 41 
 42 49 51 53 
 30 
 2 4 6 8 11 12 14 16 18 19 20 21 
 22 23 24 27 29 30 32 34 35 36 39 41 
 45 49 50 52 53 54 
 10 
 5 18 21 27 29 39 47 48 51 52 
 52 
 1 2 3 4 5 6 7 8 9 10 11 12 
 13 14 15 16 17 18 19 20 21 22 23 24 
 25 26 27 28 29 30 31 32 33 34 35 36 
 37 38 39 40 41 42 43 44 45 46 48 49 
 50 51 52 54 
 34 
 1 2 4 5 8 12 13 15 16 18 19 23 
 25 27 28 31 32 33 35 36 37 38 39 40 
 42 43 45 47 48 49 51 52 53 54 
 43 
 3 4 5 7 8 11 12 13 14 15 16 17 
 18 19 21 22 23 24 26 27 28 30 31 32 
 33 34 35 36 37 38 39 40 41 42 43 44 
 45 46 47 51 52 53 54 
 38 
 1 2 3 4 6 7 8 9 11 12 14 15 
 16 18 20 21 23 24 25 26 27 28 29 30 
 37 38 39 40 41 42 43 44 47 49 50 51 
 53 54 
 15 
 2 6 10 11 12 17 32 38 40 43 44 47 
 48 50 54 
 8 
 2 3 17 18 26 27 30 34 
 28 
 3 4 6 7 8 10 11 12 13 14 15 17 
 18 21 26 27 30 31 33 34 35 40 41 42 
 47 51 52 54 
 4 
 21 29 38 52 
 52 
 1 2 3 4 5 6 7 8 9 10 11 12 
 13 15 16 18 19 20 21 22 23 24 25 26 
 27 28 29 30 31 32 33 34 35 36 37 38 
 39 40 41 42 43 44 45 46 47 48 49 50 
 51 52 53 54 
 7 
 9 11 16 17 19 48 52 
 6 
 2 7 17 23 26 38 
 46 
 2 3 5 6 7 8 9 10 11 12 13 14 
 17 19 20 21 22 23 24 26 27 28 29 30 
 31 32 33 34 36 37 38 39 40 41 42 43 
 44 45 46 47 48 49 50 51 52 53 
 29 
 2 5 7 9 11 13 14 16 17 23 26 28 
 30 32 34 37 38 39 41 43 44 45 46 47 
 48 50 51 52 53 
 49 
 1 2 3 4 5 6 7 8 10 11 12 13 
 14 15 16 17 18 19 20 21 22 23 24 25 
 26 27 28 29 30 31 32 33 34 35 36 37 
 39 40 41 42 43 44 45 46 48 49 50 52 
 54 
 52 
 1 2 3 4 5 6 8 9 10 11 12 13 
 14 15 16 17 18 19 20 21 22 23 24 25 
 26 27 28 29 30 31 32 33 34 36 37 38 
 39 40 41 42 43 44 45 46 47 48 49 50 
 51 52 53 54 
 23 
 4 5 7 11 14 16 17 18 19 24 31 32 
 34 39 40 41 42 44 45 47 51 52 53 
 25 
 2 3 6 7 9 10 11 12 13 15 16 19 
 21 22 23 31 33 34 42 45 47 48 50 51 
 53 
 4 
 28 35 51 54 
 28 
 4 5 8 9 10 12 13 14 17 18 19 20 
 21 24 26 27 30 31 32 33 34 35 36 40 
 44 47 52 53 
 50 
 1 2 3 4 5 6 8 9 10 11 12 14 
 16 17 18 19 20 21 22 24 25 26 27 28 
 29 30 31 32 33 34 35 36 37 38 39 40 
 41 42 43 44 45 46 47 48 49 50 51 52 
 53 54 
 22 
 3 4 5 7 10 15 16 18 27 30 32 33 
 34 36 40 43 44 46 47 50 52 53 
 26 
 3 4 7 8 12 15 16 17 20 21 22 23 
 27 28 29 30 32 34 37 38 39 41 42 46 
 48 49 
 24 
 2 3 4 5 7 9 10 11 12 18 19 25 
 26 29 30 31 32 37 40 42 44 48 49 52 
 11 
 1 2 4 8 21 22 23 35 41 43 51 
 45 
 1 2 4 5 7 8 11 12 13 15 16 17 
 18 19 20 21 22 24 26 27 28 29 30 31 
 32 33 34 35 36 37 39 40 41 42 43 44 
 45 46 47 49 50 51 52 53 54 
 26 
 1 3 4 5 6 8 10 18 20 21 23 24 
 25 26 28 31 33 34 36 39 40 44 46 48 
 52 53 
 40 
 1 2 3 4 5 6 7 8 9 10 11 12 
 14 16 18 19 20 21 22 24 26 27 28 29 
 30 31 32 34 35 36 37 38 39 43 45 48 
 49 50 51 52 
 44 
 2 3 4 5 6 7 8 10 11 12 13 14 
 17 18 19 20 21 23 24 25 27 28 29 30 
 31 32 33 34 35 36 37 38 40 41 42 43 
 44 47 48 49 50 51 52 54 
 4 
 22 32 42 53 
 